
ASes= { 1, 2, 3, 4, 5, 6, 7, 8, 9, 10 } ;


Objects= { 1, 2, 3, 4, 5, 6, 7, 8, 9, 10, 11, 12, 13, 14, 15, 16, 17, 18, 19, 20, 21, 22, 23, 24, 25, 26, 27, 28, 29, 30, 31, 32, 33, 34, 35, 36, 37, 38, 39, 40, 41, 42, 43, 44, 45, 46, 47, 48, 49, 50, 51, 52, 53, 54, 55, 56, 57, 58, 59, 60, 61, 62, 63, 64, 65, 66, 67, 68, 69, 70, 71, 72, 73, 74, 75, 76, 77, 78, 79, 80, 81, 82, 83, 84, 85, 86, 87, 88, 89, 90, 91, 92, 93, 94, 95, 96, 97, 98, 99, 100, 101, 102, 103, 104, 105, 106, 107, 108, 109, 110, 111, 112, 113, 114, 115, 116, 117, 118, 119, 120, 121, 122, 123, 124, 125, 126, 127, 128, 129, 130, 131, 132, 133, 134, 135, 136, 137, 138, 139, 140, 141, 142, 143, 144, 145, 146, 147, 148, 149, 150, 151, 152, 153, 154, 155, 156, 157, 158, 159, 160, 161, 162, 163, 164, 165, 166, 167, 168, 169, 170, 171, 172, 173, 174, 175, 176, 177, 178, 179, 180, 181, 182, 183, 184, 185, 186, 187, 188, 189, 190, 191, 192, 193, 194, 195, 196, 197, 198, 199, 200 } ;


QualityLevels= { 0, 1, 2, 3, 4, 5 } ;

Arcs = { <1,2,490000>, <2,1,490000>,<1,3,490000>, <3,1,490000>,<1,4,490000>, <4,1,490000>,<2,5,490000>, <5,2,490000>,<5,6,490000>, <6,5,490000>,<1,7,490000>, <7,1,490000>,<6,8,490000>, <8,6,490000>,<8,9,490000>, <9,8,490000>,<6,10,490000>, <10,6,490000> }; 


RatePerQuality= [ 0  300  700  1500  2500  3500 ] ;


CacheSpacePerQuality= [ 10000  11.25  26.25  56.25  93.75  131.25 ] ;


UtilityPerQuality= [ 0  0.2  0.4  0.6  0.8  1 ] ;


ObjectsPublishedByProducers=[ [ 0  0  1  0  0  0  0  0  0  0 ]  [ 0  0  0  0  0  0  0  0  0  1 ]  [ 0  0  0  0  0  0  0  0  1  0 ]  [ 0  0  0  1  0  0  0  0  0  0 ]  [ 0  0  0  0  0  0  1  0  0  0 ]  [ 0  0  0  0  0  0  1  0  0  0 ]  [ 0  0  0  0  0  0  0  0  1  0 ]  [ 0  0  0  0  0  0  0  0  1  0 ]  [ 0  0  1  0  0  0  0  0  0  0 ]  [ 0  0  1  0  0  0  0  0  0  0 ]  [ 0  0  0  0  0  0  0  0  0  1 ]  [ 0  0  0  0  0  0  1  0  0  0 ]  [ 0  0  0  0  0  0  0  0  1  0 ]  [ 0  0  1  0  0  0  0  0  0  0 ]  [ 0  0  0  0  0  0  1  0  0  0 ]  [ 0  0  0  0  0  0  0  0  1  0 ]  [ 0  0  0  1  0  0  0  0  0  0 ]  [ 0  0  0  0  0  0  0  0  0  1 ]  [ 0  0  0  0  0  0  0  0  0  1 ]  [ 0  0  1  0  0  0  0  0  0  0 ]  [ 0  0  1  0  0  0  0  0  0  0 ]  [ 0  0  0  0  0  0  1  0  0  0 ]  [ 0  0  0  0  0  0  0  0  0  1 ]  [ 0  0  0  1  0  0  0  0  0  0 ]  [ 0  0  0  1  0  0  0  0  0  0 ]  [ 0  0  0  0  0  0  1  0  0  0 ]  [ 0  0  1  0  0  0  0  0  0  0 ]  [ 0  0  0  1  0  0  0  0  0  0 ]  [ 0  0  0  0  0  0  1  0  0  0 ]  [ 0  0  0  0  0  0  1  0  0  0 ]  [ 0  0  0  1  0  0  0  0  0  0 ]  [ 0  0  0  1  0  0  0  0  0  0 ]  [ 0  0  0  1  0  0  0  0  0  0 ]  [ 0  0  0  0  0  0  1  0  0  0 ]  [ 0  0  0  1  0  0  0  0  0  0 ]  [ 0  0  1  0  0  0  0  0  0  0 ]  [ 0  0  0  0  0  0  0  0  0  1 ]  [ 0  0  0  0  0  0  1  0  0  0 ]  [ 0  0  0  0  0  0  0  0  1  0 ]  [ 0  0  1  0  0  0  0  0  0  0 ]  [ 0  0  0  0  0  0  0  0  0  1 ]  [ 0  0  0  0  0  0  0  0  0  1 ]  [ 0  0  1  0  0  0  0  0  0  0 ]  [ 0  0  0  1  0  0  0  0  0  0 ]  [ 0  0  0  0  0  0  0  0  1  0 ]  [ 0  0  0  0  0  0  0  0  1  0 ]  [ 0  0  0  0  0  0  0  0  0  1 ]  [ 0  0  0  0  0  0  1  0  0  0 ]  [ 0  0  0  0  0  0  0  0  0  1 ]  [ 0  0  0  0  0  0  0  0  1  0 ]  [ 0  0  0  1  0  0  0  0  0  0 ]  [ 0  0  0  0  0  0  1  0  0  0 ]  [ 0  0  0  0  0  0  0  0  0  1 ]  [ 0  0  0  0  0  0  0  0  0  1 ]  [ 0  0  0  0  0  0  1  0  0  0 ]  [ 0  0  0  0  0  0  1  0  0  0 ]  [ 0  0  1  0  0  0  0  0  0  0 ]  [ 0  0  0  1  0  0  0  0  0  0 ]  [ 0  0  0  0  0  0  0  0  1  0 ]  [ 0  0  0  0  0  0  1  0  0  0 ]  [ 0  0  1  0  0  0  0  0  0  0 ]  [ 0  0  0  0  0  0  1  0  0  0 ]  [ 0  0  0  0  0  0  0  0  1  0 ]  [ 0  0  0  0  0  0  0  0  1  0 ]  [ 0  0  0  1  0  0  0  0  0  0 ]  [ 0  0  0  0  0  0  1  0  0  0 ]  [ 0  0  0  0  0  0  1  0  0  0 ]  [ 0  0  0  0  0  0  0  0  1  0 ]  [ 0  0  0  0  0  0  1  0  0  0 ]  [ 0  0  0  1  0  0  0  0  0  0 ]  [ 0  0  0  0  0  0  1  0  0  0 ]  [ 0  0  1  0  0  0  0  0  0  0 ]  [ 0  0  1  0  0  0  0  0  0  0 ]  [ 0  0  0  0  0  0  0  0  1  0 ]  [ 0  0  0  0  0  0  0  0  0  1 ]  [ 0  0  0  0  0  0  1  0  0  0 ]  [ 0  0  0  1  0  0  0  0  0  0 ]  [ 0  0  1  0  0  0  0  0  0  0 ]  [ 0  0  0  0  0  0  1  0  0  0 ]  [ 0  0  0  0  0  0  0  0  0  1 ]  [ 0  0  0  0  0  0  0  0  1  0 ]  [ 0  0  0  0  0  0  1  0  0  0 ]  [ 0  0  0  0  0  0  0  0  0  1 ]  [ 0  0  0  1  0  0  0  0  0  0 ]  [ 0  0  0  0  0  0  1  0  0  0 ]  [ 0  0  0  0  0  0  0  0  0  1 ]  [ 0  0  0  0  0  0  1  0  0  0 ]  [ 0  0  0  0  0  0  1  0  0  0 ]  [ 0  0  0  1  0  0  0  0  0  0 ]  [ 0  0  0  0  0  0  1  0  0  0 ]  [ 0  0  0  0  0  0  0  0  0  1 ]  [ 0  0  1  0  0  0  0  0  0  0 ]  [ 0  0  0  0  0  0  0  0  1  0 ]  [ 0  0  0  0  0  0  0  0  0  1 ]  [ 0  0  0  0  0  0  0  0  0  1 ]  [ 0  0  0  0  0  0  0  0  1  0 ]  [ 0  0  0  0  0  0  0  0  0  1 ]  [ 0  0  0  0  0  0  1  0  0  0 ]  [ 0  0  0  0  0  0  1  0  0  0 ]  [ 0  0  0  0  0  0  1  0  0  0 ]  [ 0  0  1  0  0  0  0  0  0  0 ]  [ 0  0  0  0  0  0  0  0  0  1 ]  [ 0  0  0  0  0  0  1  0  0  0 ]  [ 0  0  1  0  0  0  0  0  0  0 ]  [ 0  0  0  0  0  0  1  0  0  0 ]  [ 0  0  0  0  0  0  1  0  0  0 ]  [ 0  0  0  1  0  0  0  0  0  0 ]  [ 0  0  0  1  0  0  0  0  0  0 ]  [ 0  0  0  0  0  0  1  0  0  0 ]  [ 0  0  0  0  0  0  0  0  1  0 ]  [ 0  0  0  0  0  0  0  0  1  0 ]  [ 0  0  0  0  0  0  1  0  0  0 ]  [ 0  0  1  0  0  0  0  0  0  0 ]  [ 0  0  0  1  0  0  0  0  0  0 ]  [ 0  0  1  0  0  0  0  0  0  0 ]  [ 0  0  0  0  0  0  1  0  0  0 ]  [ 0  0  0  0  0  0  0  0  0  1 ]  [ 0  0  0  0  0  0  0  0  1  0 ]  [ 0  0  0  0  0  0  0  0  1  0 ]  [ 0  0  0  0  0  0  0  0  0  1 ]  [ 0  0  0  1  0  0  0  0  0  0 ]  [ 0  0  0  0  0  0  0  0  0  1 ]  [ 0  0  0  0  0  0  0  0  1  0 ]  [ 0  0  1  0  0  0  0  0  0  0 ]  [ 0  0  1  0  0  0  0  0  0  0 ]  [ 0  0  1  0  0  0  0  0  0  0 ]  [ 0  0  0  0  0  0  0  0  1  0 ]  [ 0  0  0  1  0  0  0  0  0  0 ]  [ 0  0  1  0  0  0  0  0  0  0 ]  [ 0  0  0  0  0  0  0  0  1  0 ]  [ 0  0  0  1  0  0  0  0  0  0 ]  [ 0  0  1  0  0  0  0  0  0  0 ]  [ 0  0  1  0  0  0  0  0  0  0 ]  [ 0  0  0  0  0  0  1  0  0  0 ]  [ 0  0  1  0  0  0  0  0  0  0 ]  [ 0  0  0  1  0  0  0  0  0  0 ]  [ 0  0  0  0  0  0  0  0  1  0 ]  [ 0  0  0  0  0  0  1  0  0  0 ]  [ 0  0  0  1  0  0  0  0  0  0 ]  [ 0  0  0  0  0  0  1  0  0  0 ]  [ 0  0  1  0  0  0  0  0  0  0 ]  [ 0  0  0  1  0  0  0  0  0  0 ]  [ 0  0  0  0  0  0  1  0  0  0 ]  [ 0  0  1  0  0  0  0  0  0  0 ]  [ 0  0  1  0  0  0  0  0  0  0 ]  [ 0  0  0  0  0  0  0  0  0  1 ]  [ 0  0  0  0  0  0  1  0  0  0 ]  [ 0  0  0  1  0  0  0  0  0  0 ]  [ 0  0  0  0  0  0  0  0  1  0 ]  [ 0  0  0  0  0  0  0  0  0  1 ]  [ 0  0  1  0  0  0  0  0  0  0 ]  [ 0  0  1  0  0  0  0  0  0  0 ]  [ 0  0  1  0  0  0  0  0  0  0 ]  [ 0  0  0  0  0  0  0  0  1  0 ]  [ 0  0  1  0  0  0  0  0  0  0 ]  [ 0  0  0  0  0  0  0  0  1  0 ]  [ 0  0  0  0  0  0  0  0  1  0 ]  [ 0  0  0  0  0  0  1  0  0  0 ]  [ 0  0  0  1  0  0  0  0  0  0 ]  [ 0  0  0  0  0  0  0  0  0  1 ]  [ 0  0  0  0  0  0  0  0  1  0 ]  [ 0  0  0  0  0  0  1  0  0  0 ]  [ 0  0  0  1  0  0  0  0  0  0 ]  [ 0  0  0  0  0  0  0  0  1  0 ]  [ 0  0  0  1  0  0  0  0  0  0 ]  [ 0  0  0  0  0  0  1  0  0  0 ]  [ 0  0  0  1  0  0  0  0  0  0 ]  [ 0  0  0  0  0  0  0  0  1  0 ]  [ 0  0  1  0  0  0  0  0  0  0 ]  [ 0  0  0  1  0  0  0  0  0  0 ]  [ 0  0  0  0  0  0  0  0  0  1 ]  [ 0  0  0  0  0  0  0  0  0  1 ]  [ 0  0  0  1  0  0  0  0  0  0 ]  [ 0  0  0  0  0  0  0  0  0  1 ]  [ 0  0  0  1  0  0  0  0  0  0 ]  [ 0  0  0  0  0  0  0  0  0  1 ]  [ 0  0  0  0  0  0  0  0  1  0 ]  [ 0  0  0  0  0  0  1  0  0  0 ]  [ 0  0  0  1  0  0  0  0  0  0 ]  [ 0  0  1  0  0  0  0  0  0  0 ]  [ 0  0  0  0  0  0  0  0  0  1 ]  [ 0  0  1  0  0  0  0  0  0  0 ]  [ 0  0  0  0  0  0  0  0  0  1 ]  [ 0  0  0  0  0  0  0  0  0  1 ]  [ 0  0  0  0  0  0  1  0  0  0 ]  [ 0  0  1  0  0  0  0  0  0  0 ]  [ 0  0  0  0  0  0  0  0  0  1 ]  [ 0  0  0  0  0  0  0  0  0  1 ]  [ 0  0  0  0  0  0  0  0  1  0 ]  [ 0  0  0  0  0  0  1  0  0  0 ]  [ 0  0  0  1  0  0  0  0  0  0 ]  [ 0  0  0  1  0  0  0  0  0  0 ]  [ 0  0  0  1  0  0  0  0  0  0 ]  [ 0  0  0  0  0  0  0  0  1  0 ]  [ 0  0  0  0  0  0  1  0  0  0 ]  [ 0  0  1  0  0  0  0  0  0  0 ]  [ 0  0  1  0  0  0  0  0  0  0 ]  [ 0  0  0  0  0  0  0  0  1  0 ]  [ 0  0  0  1  0  0  0  0  0  0 ]  [ 0  0  0  0  0  0  1  0  0  0 ] ];

ObjRequests = {  <1,3,65>, <2,3,23>, <3,3,24>, <4,3,12>, <5,3,63>, <6,3,69>, <7,3,24>, <8,3,88>, <9,3,16>, <10,3,6>, <11,3,86>, <12,3,5>, <13,3,18>, <14,3,16>, <15,3,11>, <16,3,5>, <17,3,0>, <18,3,1>, <19,3,4>, <20,3,21>, <21,3,17>, <22,3,1>, <23,3,23>, <24,3,9>, <25,3,5>, <26,3,1>, <27,3,7>, <28,3,8>, <29,3,9>, <30,3,11>, <31,3,8>, <32,3,8>, <33,3,7>, <34,3,25>, <35,3,0>, <36,3,0>, <37,3,23>, <38,3,3>, <39,3,3>, <40,3,6>, <41,3,13>, <42,3,11>, <43,3,7>, <44,3,4>, <45,3,4>, <46,3,5>, <47,3,1>, <48,3,2>, <49,3,0>, <50,3,6>, <51,3,1>, <52,3,12>, <53,3,3>, <54,3,12>, <55,3,4>, <56,3,1>, <57,3,4>, <58,3,3>, <59,3,2>, <60,3,1>, <61,3,0>, <62,3,5>, <63,3,9>, <64,3,1>, <65,3,2>, <66,3,11>, <67,3,3>, <68,3,0>, <69,3,2>, <70,3,3>, <71,3,3>, <72,3,2>, <73,3,1>, <74,3,1>, <75,3,4>, <76,3,10>, <77,3,2>, <78,3,3>, <79,3,8>, <80,3,2>, <81,3,1>, <82,3,3>, <83,3,3>, <84,3,5>, <85,3,4>, <86,3,2>, <87,3,2>, <88,3,1>, <89,3,9>, <90,3,2>, <91,3,1>, <92,3,0>, <93,3,2>, <94,3,6>, <95,3,1>, <96,3,10>, <97,3,0>, <98,3,0>, <99,3,2>, <100,3,5>, <101,3,3>, <102,3,3>, <103,3,2>, <104,3,2>, <105,3,4>, <106,3,5>, <107,3,1>, <108,3,1>, <109,3,0>, <110,3,5>, <111,3,1>, <112,3,7>, <113,3,5>, <114,3,1>, <115,3,1>, <116,3,1>, <117,3,3>, <118,3,0>, <119,3,3>, <120,3,3>, <121,3,1>, <122,3,2>, <123,3,0>, <124,3,0>, <125,3,1>, <126,3,3>, <127,3,4>, <128,3,3>, <129,3,5>, <130,3,2>, <131,3,3>, <132,3,0>, <133,3,3>, <134,3,0>, <135,3,1>, <136,3,2>, <137,3,2>, <138,3,7>, <139,3,1>, <140,3,3>, <141,3,1>, <142,3,1>, <143,3,6>, <144,3,2>, <145,3,0>, <146,3,2>, <147,3,1>, <148,3,0>, <149,3,0>, <150,3,0>, <151,3,3>, <152,3,8>, <153,3,1>, <154,3,2>, <155,3,2>, <156,3,1>, <157,3,0>, <158,3,4>, <159,3,1>, <160,3,3>, <161,3,2>, <162,3,1>, <163,3,1>, <164,3,5>, <165,3,1>, <166,3,4>, <167,3,0>, <168,3,5>, <169,3,1>, <170,3,0>, <171,3,2>, <172,3,1>, <173,3,0>, <174,3,4>, <175,3,1>, <176,3,2>, <177,3,1>, <178,3,0>, <179,3,0>, <180,3,2>, <181,3,2>, <182,3,2>, <183,3,1>, <184,3,5>, <185,3,0>, <186,3,3>, <187,3,0>, <188,3,0>, <189,3,3>, <190,3,2>, <191,3,3>, <192,3,0>, <193,3,1>, <194,3,3>, <195,3,1>, <196,3,0>, <197,3,0>, <198,3,1>, <199,3,3>, <200,3,3>, <1,4,155>, <2,4,121>, <3,4,38>, <4,4,133>, <5,4,100>, <6,4,3>, <7,4,65>, <8,4,6>, <9,4,25>, <10,4,18>, <11,4,27>, <12,4,65>, <13,4,30>, <14,4,4>, <15,4,5>, <16,4,1>, <17,4,11>, <18,4,1>, <19,4,32>, <20,4,17>, <21,4,25>, <22,4,25>, <23,4,3>, <24,4,2>, <25,4,7>, <26,4,11>, <27,4,25>, <28,4,10>, <29,4,10>, <30,4,21>, <31,4,9>, <32,4,5>, <33,4,1>, <34,4,1>, <35,4,8>, <36,4,23>, <37,4,7>, <38,4,20>, <39,4,0>, <40,4,4>, <41,4,3>, <42,4,4>, <43,4,1>, <44,4,9>, <45,4,14>, <46,4,5>, <47,4,11>, <48,4,12>, <49,4,8>, <50,4,2>, <51,4,0>, <52,4,5>, <53,4,4>, <54,4,1>, <55,4,3>, <56,4,1>, <57,4,11>, <58,4,2>, <59,4,3>, <60,4,10>, <61,4,3>, <62,4,2>, <63,4,2>, <64,4,3>, <65,4,1>, <66,4,4>, <67,4,10>, <68,4,13>, <69,4,7>, <70,4,3>, <71,4,14>, <72,4,1>, <73,4,4>, <74,4,5>, <75,4,1>, <76,4,11>, <77,4,2>, <78,4,2>, <79,4,2>, <80,4,3>, <81,4,3>, <82,4,1>, <83,4,2>, <84,4,1>, <85,4,5>, <86,4,4>, <87,4,4>, <88,4,14>, <89,4,1>, <90,4,0>, <91,4,7>, <92,4,3>, <93,4,3>, <94,4,2>, <95,4,4>, <96,4,1>, <97,4,5>, <98,4,4>, <99,4,3>, <100,4,2>, <101,4,7>, <102,4,1>, <103,4,0>, <104,4,3>, <105,4,1>, <106,4,3>, <107,4,4>, <108,4,2>, <109,4,0>, <110,4,2>, <111,4,0>, <112,4,1>, <113,4,1>, <114,4,1>, <115,4,1>, <116,4,4>, <117,4,0>, <118,4,7>, <119,4,7>, <120,4,1>, <121,4,10>, <122,4,3>, <123,4,2>, <124,4,0>, <125,4,2>, <126,4,1>, <127,4,8>, <128,4,4>, <129,4,1>, <130,4,3>, <131,4,1>, <132,4,0>, <133,4,3>, <134,4,1>, <135,4,1>, <136,4,5>, <137,4,1>, <138,4,2>, <139,4,1>, <140,4,0>, <141,4,0>, <142,4,1>, <143,4,5>, <144,4,1>, <145,4,3>, <146,4,2>, <147,4,0>, <148,4,7>, <149,4,2>, <150,4,2>, <151,4,2>, <152,4,0>, <153,4,2>, <154,4,3>, <155,4,0>, <156,4,2>, <157,4,1>, <158,4,2>, <159,4,5>, <160,4,2>, <161,4,1>, <162,4,0>, <163,4,3>, <164,4,1>, <165,4,2>, <166,4,0>, <167,4,1>, <168,4,1>, <169,4,6>, <170,4,4>, <171,4,3>, <172,4,5>, <173,4,1>, <174,4,2>, <175,4,1>, <176,4,1>, <177,4,1>, <178,4,0>, <179,4,1>, <180,4,1>, <181,4,0>, <182,4,5>, <183,4,0>, <184,4,2>, <185,4,0>, <186,4,2>, <187,4,0>, <188,4,1>, <189,4,0>, <190,4,1>, <191,4,1>, <192,4,1>, <193,4,1>, <194,4,0>, <195,4,0>, <196,4,3>, <197,4,1>, <198,4,0>, <199,4,0>, <200,4,0>, <1,7,673>, <2,7,31>, <3,7,36>, <4,7,103>, <5,7,34>, <6,7,19>, <7,7,27>, <8,7,5>, <9,7,65>, <10,7,55>, <11,7,4>, <12,7,25>, <13,7,44>, <14,7,7>, <15,7,7>, <16,7,63>, <17,7,41>, <18,7,1>, <19,7,2>, <20,7,28>, <21,7,4>, <22,7,23>, <23,7,16>, <24,7,0>, <25,7,27>, <26,7,22>, <27,7,3>, <28,7,19>, <29,7,3>, <30,7,8>, <31,7,0>, <32,7,11>, <33,7,1>, <34,7,0>, <35,7,7>, <36,7,6>, <37,7,1>, <38,7,4>, <39,7,2>, <40,7,1>, <41,7,8>, <42,7,4>, <43,7,2>, <44,7,3>, <45,7,11>, <46,7,2>, <47,7,4>, <48,7,3>, <49,7,4>, <50,7,3>, <51,7,7>, <52,7,1>, <53,7,0>, <54,7,4>, <55,7,7>, <56,7,22>, <57,7,3>, <58,7,1>, <59,7,1>, <60,7,4>, <61,7,13>, <62,7,6>, <63,7,0>, <64,7,0>, <65,7,14>, <66,7,1>, <67,7,1>, <68,7,7>, <69,7,1>, <70,7,0>, <71,7,1>, <72,7,3>, <73,7,1>, <74,7,1>, <75,7,3>, <76,7,0>, <77,7,6>, <78,7,5>, <79,7,5>, <80,7,5>, <81,7,1>, <82,7,1>, <83,7,5>, <84,7,4>, <85,7,4>, <86,7,3>, <87,7,4>, <88,7,0>, <89,7,1>, <90,7,3>, <91,7,4>, <92,7,6>, <93,7,0>, <94,7,4>, <95,7,2>, <96,7,0>, <97,7,6>, <98,7,1>, <99,7,3>, <100,7,0>, <101,7,1>, <102,7,0>, <103,7,7>, <104,7,5>, <105,7,1>, <106,7,1>, <107,7,3>, <108,7,1>, <109,7,1>, <110,7,2>, <111,7,11>, <112,7,1>, <113,7,1>, <114,7,3>, <115,7,0>, <116,7,6>, <117,7,3>, <118,7,0>, <119,7,1>, <120,7,6>, <121,7,1>, <122,7,1>, <123,7,2>, <124,7,2>, <125,7,0>, <126,7,3>, <127,7,4>, <128,7,1>, <129,7,1>, <130,7,3>, <131,7,6>, <132,7,1>, <133,7,2>, <134,7,1>, <135,7,4>, <136,7,0>, <137,7,5>, <138,7,3>, <139,7,2>, <140,7,1>, <141,7,0>, <142,7,8>, <143,7,0>, <144,7,2>, <145,7,1>, <146,7,1>, <147,7,3>, <148,7,1>, <149,7,1>, <150,7,0>, <151,7,1>, <152,7,1>, <153,7,3>, <154,7,0>, <155,7,0>, <156,7,2>, <157,7,2>, <158,7,1>, <159,7,2>, <160,7,0>, <161,7,4>, <162,7,3>, <163,7,0>, <164,7,0>, <165,7,3>, <166,7,0>, <167,7,4>, <168,7,2>, <169,7,0>, <170,7,1>, <171,7,3>, <172,7,3>, <173,7,1>, <174,7,0>, <175,7,0>, <176,7,2>, <177,7,3>, <178,7,4>, <179,7,0>, <180,7,2>, <181,7,3>, <182,7,2>, <183,7,2>, <184,7,0>, <185,7,1>, <186,7,0>, <187,7,5>, <188,7,2>, <189,7,1>, <190,7,0>, <191,7,0>, <192,7,1>, <193,7,4>, <194,7,2>, <195,7,2>, <196,7,1>, <197,7,1>, <198,7,3>, <199,7,2>, <200,7,0>, <1,9,307>, <2,9,3>, <3,9,137>, <4,9,54>, <5,9,81>, <6,9,138>, <7,9,59>, <8,9,37>, <9,9,36>, <10,9,21>, <11,9,15>, <12,9,5>, <13,9,9>, <14,9,87>, <15,9,66>, <16,9,19>, <17,9,21>, <18,9,11>, <19,9,38>, <20,9,5>, <21,9,13>, <22,9,1>, <23,9,1>, <24,9,9>, <25,9,3>, <26,9,0>, <27,9,6>, <28,9,6>, <29,9,1>, <30,9,0>, <31,9,15>, <32,9,2>, <33,9,13>, <34,9,0>, <35,9,2>, <36,9,9>, <37,9,2>, <38,9,12>, <39,9,6>, <40,9,13>, <41,9,1>, <42,9,0>, <43,9,3>, <44,9,17>, <45,9,0>, <46,9,11>, <47,9,7>, <48,9,8>, <49,9,9>, <50,9,18>, <51,9,17>, <52,9,8>, <53,9,11>, <54,9,4>, <55,9,5>, <56,9,5>, <57,9,8>, <58,9,6>, <59,9,3>, <60,9,9>, <61,9,10>, <62,9,5>, <63,9,0>, <64,9,4>, <65,9,0>, <66,9,0>, <67,9,2>, <68,9,5>, <69,9,1>, <70,9,4>, <71,9,0>, <72,9,3>, <73,9,3>, <74,9,0>, <75,9,11>, <76,9,1>, <77,9,0>, <78,9,5>, <79,9,1>, <80,9,1>, <81,9,1>, <82,9,3>, <83,9,0>, <84,9,7>, <85,9,3>, <86,9,4>, <87,9,9>, <88,9,2>, <89,9,2>, <90,9,1>, <91,9,5>, <92,9,2>, <93,9,1>, <94,9,6>, <95,9,3>, <96,9,2>, <97,9,0>, <98,9,7>, <99,9,0>, <100,9,1>, <101,9,1>, <102,9,6>, <103,9,1>, <104,9,1>, <105,9,1>, <106,9,3>, <107,9,6>, <108,9,1>, <109,9,1>, <110,9,2>, <111,9,1>, <112,9,1>, <113,9,3>, <114,9,0>, <115,9,17>, <116,9,1>, <117,9,1>, <118,9,9>, <119,9,0>, <120,9,0>, <121,9,5>, <122,9,3>, <123,9,7>, <124,9,1>, <125,9,3>, <126,9,4>, <127,9,1>, <128,9,3>, <129,9,3>, <130,9,1>, <131,9,1>, <132,9,0>, <133,9,1>, <134,9,1>, <135,9,5>, <136,9,0>, <137,9,1>, <138,9,1>, <139,9,1>, <140,9,2>, <141,9,2>, <142,9,1>, <143,9,1>, <144,9,3>, <145,9,3>, <146,9,1>, <147,9,5>, <148,9,0>, <149,9,3>, <150,9,1>, <151,9,0>, <152,9,3>, <153,9,0>, <154,9,5>, <155,9,0>, <156,9,1>, <157,9,0>, <158,9,1>, <159,9,5>, <160,9,1>, <161,9,4>, <162,9,4>, <163,9,0>, <164,9,0>, <165,9,1>, <166,9,1>, <167,9,1>, <168,9,1>, <169,9,4>, <170,9,2>, <171,9,0>, <172,9,0>, <173,9,2>, <174,9,2>, <175,9,5>, <176,9,2>, <177,9,0>, <178,9,2>, <179,9,1>, <180,9,1>, <181,9,3>, <182,9,0>, <183,9,0>, <184,9,3>, <185,9,2>, <186,9,0>, <187,9,0>, <188,9,1>, <189,9,4>, <190,9,3>, <191,9,5>, <192,9,1>, <193,9,0>, <194,9,1>, <195,9,2>, <196,9,3>, <197,9,3>, <198,9,1>, <199,9,1>, <200,9,2>, <1,10,196>, <2,10,550>, <3,10,193>, <4,10,30>, <5,10,8>, <6,10,18>, <7,10,46>, <8,10,22>, <9,10,6>, <10,10,24>, <11,10,5>, <12,10,3>, <13,10,5>, <14,10,2>, <15,10,0>, <16,10,11>, <17,10,5>, <18,10,62>, <19,10,4>, <20,10,8>, <21,10,16>, <22,10,15>, <23,10,16>, <24,10,42>, <25,10,15>, <26,10,3>, <27,10,11>, <28,10,8>, <29,10,30>, <30,10,1>, <31,10,16>, <32,10,19>, <33,10,12>, <34,10,12>, <35,10,29>, <36,10,1>, <37,10,0>, <38,10,1>, <39,10,20>, <40,10,3>, <41,10,5>, <42,10,2>, <43,10,4>, <44,10,4>, <45,10,8>, <46,10,5>, <47,10,8>, <48,10,2>, <49,10,5>, <50,10,5>, <51,10,2>, <52,10,0>, <53,10,4>, <54,10,1>, <55,10,3>, <56,10,0>, <57,10,0>, <58,10,0>, <59,10,5>, <60,10,1>, <61,10,4>, <62,10,0>, <63,10,14>, <64,10,5>, <65,10,8>, <66,10,5>, <67,10,1>, <68,10,1>, <69,10,8>, <70,10,16>, <71,10,0>, <72,10,1>, <73,10,10>, <74,10,9>, <75,10,4>, <76,10,2>, <77,10,5>, <78,10,5>, <79,10,13>, <80,10,3>, <81,10,10>, <82,10,5>, <83,10,5>, <84,10,2>, <85,10,5>, <86,10,3>, <87,10,6>, <88,10,6>, <89,10,0>, <90,10,2>, <91,10,3>, <92,10,0>, <93,10,1>, <94,10,0>, <95,10,3>, <96,10,1>, <97,10,1>, <98,10,0>, <99,10,2>, <100,10,2>, <101,10,5>, <102,10,2>, <103,10,6>, <104,10,2>, <105,10,4>, <106,10,1>, <107,10,1>, <108,10,5>, <109,10,5>, <110,10,6>, <111,10,1>, <112,10,2>, <113,10,6>, <114,10,1>, <115,10,4>, <116,10,0>, <117,10,5>, <118,10,0>, <119,10,3>, <120,10,2>, <121,10,0>, <122,10,2>, <123,10,0>, <124,10,2>, <125,10,1>, <126,10,2>, <127,10,1>, <128,10,1>, <129,10,2>, <130,10,0>, <131,10,2>, <132,10,5>, <133,10,0>, <134,10,2>, <135,10,1>, <136,10,1>, <137,10,3>, <138,10,3>, <139,10,7>, <140,10,3>, <141,10,0>, <142,10,1>, <143,10,2>, <144,10,1>, <145,10,4>, <146,10,1>, <147,10,1>, <148,10,0>, <149,10,1>, <150,10,1>, <151,10,2>, <152,10,0>, <153,10,1>, <154,10,2>, <155,10,1>, <156,10,0>, <157,10,1>, <158,10,3>, <159,10,0>, <160,10,1>, <161,10,1>, <162,10,1>, <163,10,0>, <164,10,2>, <165,10,0>, <166,10,5>, <167,10,1>, <168,10,3>, <169,10,6>, <170,10,1>, <171,10,3>, <172,10,1>, <173,10,1>, <174,10,1>, <175,10,4>, <176,10,1>, <177,10,0>, <178,10,1>, <179,10,0>, <180,10,1>, <181,10,1>, <182,10,1>, <183,10,0>, <184,10,1>, <185,10,1>, <186,10,5>, <187,10,0>, <188,10,0>, <189,10,3>, <190,10,1>, <191,10,2>, <192,10,2>, <193,10,7>, <194,10,2>, <195,10,1>, <196,10,0>, <197,10,3>, <198,10,2>, <199,10,0>, <200,10,1> };

MaxCacheStorageAtSingleAS= [ 131.25  131.25  131.25  131.25  131.25  131.25  131.25  131.25  131.25  131.25 ] ;

MaxCacheStorage = 1312.5 ;
Strategy = 0 ;
